100
32
16
21
22
5
15
6
8
10
1
1
10
9
1
18
15
10
2
8
10
4
1
8
4
11
8
19
17
2
1
2
2
7
17
1
2
17
5
2
1
2
18
1
2
9
1
20
1
1
2
5
4
3
1
1
2
1
1
1
24
1
4
9
1
1
16
3
5
3
1
1
2
2
1
19
4
1
6
1
1
3
2
1
1
1
1
1
1
21
3
3
2
17
4
3
2
2
1
1
2
1